out/bwp_7_10_1_lp.out
8
-0 -0    0 0
6 -0    6 0
3 6    3 6
3 7    3 7
-0 1    0 2
6 1    6 2
3 4    3 5
1 -0    5 2
-0 3    2 7
4 3    6 7
